
  22   10
  10   10   10   10   10   10   10   10   10   10

   0   0   0   0   0   0   0   0   0   0   0   1 2 
   2  10  10  10  10  10  10  10  10  10  10   1 3 
   8  10  10  10  10  10  10  10  10  10  10   2 5 4 
   1  10  10  10  10  10  10  10  10  10  10   1 6 
   6  10  10  10  10  10  10  10  10  10  10   1 6 
   9  10  10  10  10  10  10  10  10  10  10   2 8 7 
   6  10  10  10  10  10  10  10  10  10  10   2 11 9 
   3  10  10  10  10  10  10  10  10  10  10   3 18 11 10 
   5  10  10  10  10  10  10  10  10  10  10   2 18 10 
   5  10  10  10  10  10  10  10  10  10  10   3 14 13 12 
   9  10  10  10  10  10  10  10  10  10  10   5 21 20 17 16 15 
  10  10  10  10  10  10  10  10  10  10  10   4 21 20 17 15 
   8  10  10  10  10  10  10  10  10  10  10   4 21 20 16 15 
  10  10  10  10  10  10  10  10  10  10  10   4 21 17 16 15 
   9  10  10  10  10  10  10  10  10  10  10   1 19 
   3  10  10  10  10  10  10  10  10  10  10   1 19 
   7  10  10  10  10  10  10  10  10  10  10   1 19 
   1  10  10  10  10  10  10  10  10  10  10   1 20 
   5  10  10  10  10  10  10  10  10  10  10   1 22
   5  10  10  10  10  10  10  10  10  10  10   1 22
   6  10  10  10  10  10  10  10  10  10  10   1 22
   0   0   0   0   0   0   0   0   0   0   0   0 
